(set-info :origin "driver benchmark extracted from Microsoft SDV")
(set-logic HORN)
(declare-fun Proc30 (Int Int Int Int Int Bool Int Int) Bool)
(declare-fun Proc19 (Int Int Int Int Int Bool Int Int Int) Bool)
(declare-fun Proc33 (Int Int Int Int Int Bool Int) Bool)
(declare-fun Proc18 (Int Int Int Int Int Bool Int Int Int) Bool)
(declare-fun Proc20 (Int Int Int Int Int Bool Int Int) Bool)
(declare-fun Proc49 (Int Int Int Int Int Bool Int Int) Bool)
(declare-fun Proc6 (Int Int Int Int Int Bool Int Int) Bool)
(declare-fun Proc54 (Int Int Int Int Int Bool Int Int) Bool)
(declare-fun Proc56
             (Int Int Int Int Int Bool Int Bool Int Int Int Int Int)
             Bool)
(declare-fun Proc15 (Int Int Int Int Int Bool Int Int) Bool)
(declare-fun Proc16 (Int Int Int Int Int Bool) Bool)
(declare-fun Proc8 (Int Int Int Int Int Bool Int) Bool)
(declare-fun Proc40 (Int Int Int Int Int Bool Int) Bool)
(declare-fun Proc7 (Int Int Int Int Int Bool Int Int Int Int) Bool)
(declare-fun Proc51 (Int Int Int Int Int Bool Int Int Int Int) Bool)
(declare-fun Proc36 (Int Int Int Int Int Bool Int) Bool)
(declare-fun Proc52 (Int Int Int Int Int Bool) Bool)
(declare-fun Proc23 (Int Int Int Int Int Bool Int Int) Bool)
(declare-fun Proc14 (Int Int Int Int Int Bool Int) Bool)
(declare-fun Proc10 (Int Int Int Int Int Bool Int Int) Bool)
(declare-fun Proc34 (Int Int Int Int Int Bool Int) Bool)
(declare-fun Proc11 (Int Int Int Int Int Bool Int Int Int) Bool)
(declare-fun Proc50 (Int Int Int Int Int Bool Int) Bool)
(declare-fun Proc2 (Int Int Int Int Int Bool Int Int) Bool)
(declare-fun Proc3 (Int Int Int Int Int Bool Int) Bool)
(declare-fun Proc4
             (Int
              Int
              Int
              Int
              Int
              Bool
              Int
              Int
              Int
              Int
              Int
              Int
              Int
              Int
              Int
              Int
              Int
              Int)
             Bool)
(declare-fun Proc28 (Int Int Int Int Int Bool Int Int Int Int) Bool)
(declare-fun Proc42 (Int Int Int Int Int Bool Int) Bool)
(declare-fun Proc26 (Int Int Int Int Int Bool Int Int Int Int) Bool)
(declare-fun Proc39 (Int Int Int Int Int Bool Int) Bool)
(declare-fun Proc53 (Int Int Int Int Int Bool) Bool)
(declare-fun Proc37 (Int Int Int Int Int Bool Int) Bool)
(declare-fun Proc24 (Int Int Int Int Int Bool Int Int Int Int) Bool)
(declare-fun Proc29 (Int Int Int Int Int Bool Int Int Int Int) Bool)
(declare-fun Proc35 (Int Int Int Int Int Bool Int) Bool)
(declare-fun Proc27 (Int Int Int Int Int Bool Int Int Int) Bool)
(declare-fun Proc21 (Int Int Int Int Int Bool Int Int Int) Bool)
(declare-fun Proc43 (Int Int Int Int Int Bool Int) Bool)
(declare-fun Proc31 (Int Int Int Int Int Bool Int Int) Bool)
(declare-fun Proc5 (Int Int Int Int Int Bool Int Int Int) Bool)
(declare-fun Proc1 (Int Int Int Int Int Bool Int Int Int Int Int) Bool)
(declare-fun Proc9 (Int Int Int Int Int Bool Int Int Int Int Int Int) Bool)
(declare-fun Proc17 (Int Int Int Int Int Bool Int) Bool)
(declare-fun Proc44 (Int Int Int Int Int Bool Int) Bool)
(declare-fun Proc32
             (Int Int Int Int Int Bool Int Int Int Int Bool Int Int)
             Bool)
(declare-fun Proc47 (Int Int Int Int Int Bool Int) Bool)
(declare-fun Proc0 (Int Int Int Int Int Bool Int Int Int) Bool)
(declare-fun Proc25 (Int Int Int Int Int Bool Int) Bool)
(declare-fun Proc41 (Int Int Int Int Int Bool Int) Bool)
(declare-fun Proc13 (Int Int Int Int Int Bool) Bool)
(declare-fun Proc38 (Int Int Int Int Int Bool Int) Bool)
(declare-fun Proc46 (Int Int Int Int Int Bool Int Int) Bool)
(declare-fun Proc55 (Int Int Int Int Int Bool) Bool)
(declare-fun Proc48 (Int Int Int Int Int Bool) Bool)
(declare-fun Proc22 (Int Int Int Int Int Bool Int Int Int Int Int Int) Bool)
(declare-fun Proc12 (Int Int Int Int Int Bool Int Int Int) Bool)
(declare-fun Proc45 (Int Int Int Int Int Bool Int) Bool)
(assert (forall ((A Int)
         (B Int)
         (C Int)
         (D Int)
         (E Int)
         (F Int)
         (G Int)
         (H Int)
         (I Int)
         (J Bool))
  (let ((a!1 (and (or (not (= H 1)) (not (= G H)))
                  (or (not (= H 0)) (not (= G H))))))
  (let ((a!2 (and (or (= I 0) (not (= H 1)) (not (= G H)))
                  (or (not (= I 0)) a!1))))
    (=> (not (or (not J) a!2)) (Proc0 F E D C B J A I G))))))
(assert (forall ((A Int)
         (B Int)
         (C Int)
         (D Int)
         (E Int)
         (F Int)
         (G Int)
         (H Int)
         (I Int)
         (J Bool)
         (K Int)
         (L Int)
         (M Int)
         (N Int)
         (O Int))
  (let ((a!1 (or (not (and (= O N) (= M 0))) (not (and (= L M) (= K O)))))
        (a!2 (and (not (<= H (+ 1 I))) (not (<= H N)))))
  (let ((a!3 (or (not (= I N))
                 (not a!2)
                 (not (and (= O H) (= M I)))
                 (not (and (= L M) (= K O))))))
    (=> (not (or (not J) (and a!1 a!3))) (Proc1 N G F E D J C B A L K))))))
(assert (forall ((A Int)
         (B Int)
         (C Int)
         (D Int)
         (E Int)
         (F Int)
         (G Int)
         (H Int)
         (I Int)
         (J Bool)
         (K Int))
  (let ((a!1 (not (and (= G (- 1073741823)) (= I G)))))
  (let ((a!2 (and (or (= K 0) (not (= I 0)) (not (= H I)))
                  (or (not (= K 0)) a!1 (not (= H I))))))
    (=> (not (or (not J) a!2)) (Proc2 F E D C B J A H))))))
(assert (forall ((A Int) (B Int) (C Int) (D Int) (E Int) (F Int) (J Bool))
  (=> J (Proc3 F E D C B J A))))
(assert (forall ((A Int)
         (B Int)
         (C Int)
         (D Int)
         (E Int)
         (F Int)
         (G Int)
         (H Int)
         (I Int)
         (J Bool)
         (K Int)
         (L Int)
         (M Int)
         (N Int)
         (O Int)
         (P Int)
         (Q Int)
         (R Int)
         (S Int)
         (T Int)
         (U Int))
  (let ((a!1 (not (and (= S (- 1073741670)) (= U S))))
        (a!2 (not (and (= R (- 1073741811)) (= U R)))))
  (let ((a!3 (and (or (not (= U 0)) (not (= T U)))
                  (or a!1 (not (= T U)))
                  (or a!2 (not (= T U))))))
    (=> (not (or (not J) a!3)) (Proc4 Q P O N M J L K I H G F E D C B A T))))))
(assert (forall ((A Int)
         (B Int)
         (C Int)
         (D Int)
         (E Int)
         (F Int)
         (G Int)
         (H Int)
         (J Bool))
  (let ((a!1 (not (or (not J) (= H 0) (not (= G 259))))))
    (=> a!1 (Proc5 F E D C B J A H G)))))
(assert (forall ((A Int) (B Int) (C Int) (D Int) (E Int) (F Int) (G Int) (J Bool))
  (=> J (Proc6 G F E D C J B A))))
(assert (forall ((A Int)
         (B Int)
         (C Int)
         (D Int)
         (E Int)
         (F Int)
         (G Int)
         (H Int)
         (I Int)
         (J Bool)
         (K Int)
         (L Int))
  (let ((a!1 (and (not (<= I (+ 1 L))) (not (<= I K)))))
  (let ((a!2 (not (or (not J) (not (= L K)) (not a!1) (not (= H I))))))
    (=> a!2 (Proc7 K G F E D J C B A H))))))
(assert (forall ((A Int) (B Int) (C Int) (D Int) (E Int) (F Int) (J Bool))
  (=> J (Proc8 F E D C B J A))))
(assert (forall ((A Int)
         (B Int)
         (C Int)
         (D Int)
         (E Int)
         (F Int)
         (G Int)
         (H Int)
         (I Int)
         (J Bool)
         (K Int)
         (L Int)
         (M Int)
         (N Int))
  (let ((a!1 (not (and (= N (- 1073741823)) (= M N)))))
  (let ((a!2 (and (or a!1 (not (= L M))) (or (not (= M 0)) (not (= L M))))))
    (=> (not (or (not J) a!2)) (Proc9 K I H G F J E D C B A L))))))
(assert (forall ((A Int)
         (B Int)
         (C Int)
         (D Int)
         (E Int)
         (F Int)
         (G Int)
         (H Int)
         (I Int)
         (J Bool)
         (K Int)
         (L Int))
  (let ((a!1 (and (not (<= I (+ 1 L))) (not (<= I K)))))
  (let ((a!2 (or (not J)
                 (not (= L K))
                 (not a!1)
                 (not (Proc10 I H G F E J L D))
                 (not (and (= C I) (= B D))))))
    (=> (not a!2) (Proc11 K H G F E J A C B))))))
(assert (forall ((A Int) (B Int) (C Int) (D Int) (E Int) (F Int) (G Int) (J Bool))
  (let ((a!1 (not (or (not J) (not (= G 1))))))
    (=> a!1 (Proc10 F E D C B J A G)))))
(assert (forall ((A Int)
         (B Int)
         (C Int)
         (D Int)
         (E Int)
         (F Int)
         (G Int)
         (H Int)
         (I Int)
         (J Bool)
         (K Int)
         (L Int)
         (M Int))
  (let ((a!1 (or (not (and (= L K) (= I H))) (not (and (= G I) (= F L)))))
        (a!2 (or (not (= A 1))
                 (not (and (= L A) (= I B)))
                 (not (and (= G I) (= F L)))))
        (a!3 (or (= A 1)
                 (not (and (= L A) (= I B)))
                 (not (and (= G I) (= F L)))))
        (a!5 (or (not (= M 0))
                 (not (and (= L K) (= I H)))
                 (not (and (= G I) (= F L))))))
  (let ((a!4 (and a!1 (or (not (Proc11 H M E D K J C B A)) (and a!2 a!3)))))
  (let ((a!6 (or (not J) (and (or (= M 0) a!4) a!5 a!1))))
    (=> (not a!6) (Proc12 H M E D K J C G F)))))))
(assert (forall ((A Int) (B Int) (C Int) (D Int) (E Int) (J Bool))
  (=> J (Proc13 E D C B A J))))
(assert (forall ((A Int) (B Int) (C Int) (D Int) (E Int) (F Int) (J Bool))
  (let ((a!1 (not (or (not J) (not (= F E))))))
    (=> a!1 (Proc14 D C B E A J F)))))
(assert (forall ((A Int) (B Int) (C Int) (D Int) (E Int) (F Int) (G Int) (J Bool))
  (let ((a!1 (or (not J) (not (and (= G 0) (= F 0))))))
    (=> (not a!1) (Proc15 E D C B A J G F)))))
(assert (forall ((A Int)
         (B Int)
         (C Int)
         (D Int)
         (E Int)
         (F Int)
         (G Int)
         (H Int)
         (I Int)
         (J Bool)
         (K Int)
         (L Int))
  (let ((a!1 (not (and (not (= D 0)) (Proc18 K I H G F J C E B)))))
  (let ((a!2 (not (or (not J)
                      (= L 0)
                      (not (Proc16 K I H G F J))
                      (not (Proc17 K I H G F J E))
                      (= D 0)
                      a!1
                      (not (= A B))))))
    (=> a!2 (Proc19 K I H G F J L E A))))))
(assert (forall ((A Int)
         (B Int)
         (C Int)
         (D Int)
         (E Int)
         (F Int)
         (G Int)
         (H Int)
         (I Int)
         (J Bool)
         (K Int)
         (L Int)
         (M Int)
         (N Int)
         (O Int)
         (P Int)
         (Q Int)
         (R Int))
  (let ((a!1 (not (and (= I (- 1073741822)) (= H I))))
        (a!2 (not (and (not (= F 0))
                       (= E (+ 28 F))
                       (Proc4 R Q P O N J E 128 F 0 D 0 0 0 1 1 1 C))))
        (a!3 (not (and (not (= F 0)) (Proc18 R Q P O N J B M A)))))
  (let ((a!4 (and (or a!1 (not (= G H)))
                  (or (= F 0)
                      a!2
                      (not (Proc17 R Q P O N J M))
                      a!3
                      (not (= H A))
                      (not (= G H))))))
  (let ((a!5 (not (or (not J)
                      (not (Proc16 R Q P O N J))
                      (not (Proc20 R Q P O N J M L))
                      (= K 0)
                      (= L 0)
                      a!4))))
    (=> a!5 (Proc21 R Q P O N J K M G)))))))
(assert (forall ((A Int)
         (B Int)
         (C Int)
         (D Int)
         (E Int)
         (F Int)
         (G Int)
         (H Int)
         (I Int)
         (J Bool)
         (K Int)
         (L Int)
         (M Int)
         (N Int)
         (O Int)
         (P Int)
         (Q Int)
         (R Int)
         (S Int))
  (let ((a!1 (and (not (<= Q (+ 112 S))) (not (<= Q R))))
        (a!2 (not (and (not (= H 0)) (Proc18 K O N M L J G I F))))
        (a!3 (not (and (not (= F 259)) (= E F))))
        (a!4 (not (Proc23 K O N M L J I 0)))
        (a!6 (not (and (not (= I 0)) (= E A)))))
  (let ((a!5 (or a!3 (= I 0) a!4 (not (and (= D E) (= C K)))))
        (a!7 (or (not (= F 259))
                 (not (Proc9 K O N M L J S 0 0 0 0 B))
                 a!6
                 (= I 0)
                 a!4
                 (not (and (= D E) (= C K))))))
  (let ((a!8 (not (or (not J)
                      (not (= S R))
                      (not a!1)
                      (= P 0)
                      (not (Proc16 Q O N M L J))
                      (not (Proc7 Q O N M L J S 0 0 K))
                      (not (Proc17 K O N M L J I))
                      (not (Proc22 K O N M L J I 127 S 1 1 1))
                      (= H 0)
                      a!2
                      (and a!5 a!7)))))
    (=> a!8 (Proc24 R O N M L J P I D C)))))))
(assert (forall ((A Int)
         (B Int)
         (C Int)
         (D Int)
         (E Int)
         (F Int)
         (G Int)
         (H Int)
         (I Int)
         (J Bool)
         (K Int)
         (L Int)
         (M Int)
         (N Int)
         (O Int)
         (P Int)
         (Q Int)
         (R Int)
         (S Int)
         (T Int)
         (U Int)
         (V Int)
         (W Int)
         (X Int)
         (Y Int)
         (Z Int)
         (A1 Int)
         (B1 Int)
         (C1 Int)
         (D1 Int)
         (E1 Int)
         (F1 Int)
         (G1 Int)
         (H1 Int)
         (I1 Int)
         (J1 Int)
         (K1 Int))
  (let ((a!1 (and (= K1 J1) (not (<= I1 (+ 4 K1)))))
        (a!2 (and (not (<= I1 J1))
                  (= H1 I1)
                  (not (<= G1 (+ 4 H1)))
                  (not (<= G1 I1))
                  (= F1 G1)
                  (not (<= E1 (+ 8 F1)))
                  (not (<= E1 G1))
                  (= D1 E1)
                  (not (<= C1 (+ 8 D1)))
                  (not (<= C1 E1))
                  (= B1 C1)
                  (not (<= A1 (+ 12 B1)))
                  (not (<= A1 C1))
                  (= Z A1)
                  (not (<= Y (+ 4 Z)))
                  (not (<= Y A1))))
        (a!3 (and (not (<= W (+ 1 X))) (not (<= W Y))))
        (a!4 (and (not (<= U (+ 1 V))) (not (<= U W))))
        (a!5 (not (and (not (= M 0)) (not (= N 0)))))
        (a!6 (not (and (not (= M 0)) (Proc18 K T S R Q J I O H))))
        (a!8 (or (not (= A (- 1073741789)))
                 (= O 0)
                 (not (Proc23 U T S R Q J O 0))
                 (not (and (= G A) (= F U)))
                 (not (and (= E G) (= D F)))
                 (not (and (= C E) (= B D))))))
  (let ((a!7 (or (not (Proc25 U T S R Q J Z))
                 (not (Proc6 U T S R Q J Z B1))
                 (not (<= 3 L))
                 (not (Proc17 K T S R Q J O))
                 (= M 0)
                 a!6
                 (not (and (= G H) (= F K)))
                 (not (and (= E G) (= D F)))
                 (not (and (= C E) (= B D))))))
  (let ((a!9 (not (or (not J)
                      (not a!1)
                      (not a!2)
                      (not (= X Y))
                      (not a!3)
                      (not (= V W))
                      (not a!4)
                      (not (Proc16 U T S R Q J))
                      (= P 0)
                      (not (Proc20 U T S R Q J O N))
                      a!5
                      (and a!7 a!8)))))
    (=> a!9 (Proc26 J1 T S R Q J P O C B)))))))
(assert (forall ((A Int)
         (B Int)
         (C Int)
         (D Int)
         (E Int)
         (F Int)
         (G Int)
         (H Int)
         (I Int)
         (J Bool)
         (K Int)
         (L Int))
  (let ((a!1 (not (and (not (= D 0)) (Proc18 K I H G F J C E B)))))
  (let ((a!2 (not (or (not J)
                      (= L 0)
                      (not (Proc16 K I H G F J))
                      (not (Proc17 K I H G F J E))
                      (= D 0)
                      a!1
                      (not (= A B))))))
    (=> a!2 (Proc27 K I H G F J L E A))))))
(assert (forall ((A Int)
         (B Int)
         (C Int)
         (D Int)
         (E Int)
         (F Int)
         (G Int)
         (H Int)
         (I Int)
         (J Bool)
         (K Int))
  (let ((a!1 (not (and (not (= I 0)) (not (= H 0))))))
  (let ((a!2 (not (or (not J)
                      (= K 0)
                      a!1
                      (not (Proc8 G F E D C J B))
                      (not (= A 0))))))
    (=> a!2 (Proc28 G F E D C J K H B A))))))
(assert (forall ((A Int)
         (B Int)
         (C Int)
         (D Int)
         (E Int)
         (F Int)
         (G Int)
         (H Int)
         (I Int)
         (J Bool)
         (K Int))
  (let ((a!1 (not (and (not (= I 0)) (not (= H 0))))))
  (let ((a!2 (not (or (not J) (= K 0) a!1 (not (= G 0))))))
    (=> a!2 (Proc29 F E D C B J K H A G))))))
(assert (forall ((A Int)
         (B Int)
         (C Int)
         (D Int)
         (E Int)
         (F Int)
         (G Int)
         (H Int)
         (I Int)
         (J Bool)
         (K Int)
         (L Int)
         (M Int)
         (N Int)
         (O Int)
         (P Int)
         (Q Int)
         (R Int)
         (S Int)
         (T Int)
         (U Int)
         (V Int)
         (L1 Bool)
         (M1 Bool)
         (N1 Bool))
  (let ((a!1 (not (and (not (<= V 0)) (Proc30 V U T S R N1 Q P))))
        (a!2 (not (and (= G I)
                       (= F O)
                       (= E K)
                       (= D M)
                       (= L1 M1)
                       (= C L)
                       (= B P)))))
  (let ((a!3 (or (= K 0) (not (and (= I H) (not M1))) a!2))
        (a!4 (or (not (and (= K 0) (= J N1))) (not (and (= I A) (= M1 J))) a!2)))
  (let ((a!5 (and (or (= K 1) (and a!3 a!4)) (or (not (= K 1)) (and a!3 a!4)))))
  (let ((a!6 (not (or (not N1)
                      a!1
                      (not (Proc15 Q U T P R N1 O N))
                      (not (Proc14 Q O T P N N1 M))
                      (not (Proc13 Q O M P N N1))
                      (= M 0)
                      (not (Proc31 Q O M P N N1 L K))
                      a!5))))
    (=> a!6 (Proc32 V U T S R N1 G F E D L1 C B))))))))
(assert (forall ((A Int) (B Int) (C Int) (D Int) (E Int) (F Int) (J Bool))
  (let ((a!1 (not (or (not J) (not (= F 1))))))
    (=> a!1 (Proc33 E D C B A J F)))))
(assert (forall ((A Int) (B Int) (C Int) (D Int) (E Int) (F Int) (J Bool))
  (let ((a!1 (not (or (not J) (not (= F 0))))))
    (=> a!1 (Proc34 E D C B A J F)))))
(assert (forall ((A Int) (B Int) (C Int) (D Int) (E Int) (F Int) (J Bool))
  (let ((a!1 (not (or (not J) (not (= F 1))))))
    (=> a!1 (Proc35 E D C B A J F)))))
(assert (forall ((A Int) (B Int) (C Int) (D Int) (E Int) (F Int) (J Bool))
  (let ((a!1 (not (or (not J) (not (= F 0))))))
    (=> a!1 (Proc36 E D C B A J F)))))
(assert (forall ((A Int) (B Int) (C Int) (D Int) (E Int) (F Int) (J Bool))
  (let ((a!1 (not (or (not J) (not (= F 1))))))
    (=> a!1 (Proc37 E D C B A J F)))))
(assert (forall ((A Int) (B Int) (C Int) (D Int) (E Int) (F Int) (J Bool))
  (let ((a!1 (not (or (not J) (not (= F 1))))))
    (=> a!1 (Proc38 E D C B A J F)))))
(assert (forall ((A Int) (B Int) (C Int) (D Int) (E Int) (F Int) (J Bool))
  (let ((a!1 (not (or (not J) (not (= F 1))))))
    (=> a!1 (Proc39 E D C B A J F)))))
(assert (forall ((A Int) (B Int) (C Int) (D Int) (E Int) (F Int) (J Bool))
  (let ((a!1 (not (or (not J) (not (= F 1))))))
    (=> a!1 (Proc40 E D C B A J F)))))
(assert (forall ((A Int) (B Int) (C Int) (D Int) (E Int) (F Int) (J Bool))
  (let ((a!1 (not (or (not J) (not (= F 1))))))
    (=> a!1 (Proc41 E D C B A J F)))))
(assert (forall ((A Int) (B Int) (C Int) (D Int) (E Int) (F Int) (J Bool))
  (let ((a!1 (not (or (not J) (not (= F 0))))))
    (=> a!1 (Proc42 E D C B A J F)))))
(assert (forall ((A Int) (B Int) (C Int) (D Int) (E Int) (F Int) (J Bool))
  (let ((a!1 (not (or (not J) (not (= F 0))))))
    (=> a!1 (Proc43 E D C B A J F)))))
(assert (forall ((A Int) (B Int) (C Int) (D Int) (E Int) (F Int) (G Int) (J Bool))
  (let ((a!1 (or (not J) (not (= G (- 1073741823))) (not (= F G)))))
    (=> (not a!1) (Proc44 E D C B A J F)))))
(assert (forall ((A Int)
         (B Int)
         (C Int)
         (D Int)
         (E Int)
         (F Int)
         (G Int)
         (H Int)
         (I Int)
         (J Bool))
  (let ((a!1 (not (or (not J) (not (Proc5 I H G F E J D C B)) (not (= A B))))))
    (=> a!1 (Proc18 I H G F E J D C A)))))
(assert (forall ((A Int) (B Int) (C Int) (D Int) (E Int) (F Int) (G Int) (J Bool))
  (=> J (Proc23 G F E D C J B A))))
(assert (forall ((A Int) (B Int) (C Int) (D Int) (E Int) (F Int) (J Bool))
  (let ((a!1 (not (or (not J) (not (= F 1))))))
    (=> a!1 (Proc45 E D C B A J F)))))
(assert (forall ((A Int) (B Int) (C Int) (D Int) (E Int) (F Int) (J Bool))
  (=> J (Proc17 F E D C B J A))))
(assert (forall ((A Int)
         (B Int)
         (C Int)
         (D Int)
         (E Int)
         (F Int)
         (G Int)
         (H Int)
         (J Bool))
  (let ((a!1 (not (or (not J) (= H 0) (not (= G F))))))
    (=> a!1 (Proc20 E D C B A J H G)))))
(assert (forall ((A Int)
         (B Int)
         (C Int)
         (D Int)
         (E Int)
         (F Int)
         (G Int)
         (H Int)
         (I Int)
         (J Bool)
         (K Int)
         (L Int))
  (let ((a!1 (and (or (not (= I H)) (not (= G I)))
                  (or (not (= I F)) (not (= G I))))))
  (let ((a!2 (and (or (= L K) a!1)
                  (or (not (= L K)) (not (= I E)) (not (= G I))))))
    (=> (not (or (not J) a!2)) (Proc46 D C B K A J L G))))))
(assert (forall ((A Int)
         (B Int)
         (C Int)
         (D Int)
         (E Int)
         (F Int)
         (G Int)
         (H Int)
         (I Int)
         (J Bool)
         (K Int)
         (L Int)
         (M Int))
  (let ((a!1 (not (or (not J) (not (Proc46 M L K I H J G F)) (= F 0)))))
    (=> a!1 (Proc22 M L K I H J G E D C B A)))))
(assert (forall ((A Int) (B Int) (C Int) (D Int) (E Int) (F Int) (J Bool))
  (=> (not (or (not J) (= F 0))) (Proc25 E D C B A J F))))
(assert (forall ((A Int)
         (B Int)
         (C Int)
         (D Int)
         (E Int)
         (F Int)
         (G Int)
         (H Int)
         (I Int)
         (J Bool)
         (K Int)
         (L Int)
         (M Int)
         (N Int)
         (O Int)
         (P Int)
         (Q Int)
         (R Int)
         (S Int)
         (T Int)
         (U Int)
         (V Int)
         (W Int)
         (X Int)
         (Y Int)
         (Z Int)
         (A1 Int)
         (B1 Int)
         (C1 Int)
         (D1 Int)
         (E1 Int)
         (F1 Int)
         (G1 Int)
         (H1 Int))
  (let ((a!1 (not (Proc49 X F1 E1 D1 C1 J Y H1)))
        (a!18 (not (Proc21 G1 F1 E1 D1 C1 J A1 H1 C))))
  (let ((a!2 (or (= B1 0)
                 (not (Proc19 G1 F1 E1 D1 C1 J A1 H1 Z))
                 (not (and (= Y Z) (= X G1)))
                 a!1
                 (= H1 0)
                 (not (and (= W Y) (= V X)))))
        (a!3 (or (= B1 0)
                 (not (Proc44 G1 F1 E1 D1 C1 J U))
                 (not (and (= Y U) (= X G1)))
                 a!1
                 (= H1 0)
                 (not (and (= W Y) (= V X)))))
        (a!4 (or (= B1 0)
                 (not (Proc26 G1 F1 E1 D1 C1 J A1 H1 T S))
                 (not (and (= Y T) (= X S)))
                 a!1
                 (= H1 0)
                 (not (and (= W Y) (= V X)))))
        (a!5 (or (= B1 0)
                 (not (Proc44 G1 F1 E1 D1 C1 J R))
                 (not (and (= Y R) (= X G1)))
                 a!1
                 (= H1 0)
                 (not (and (= W Y) (= V X)))))
        (a!6 (or (= B1 0)
                 (not (Proc44 G1 F1 E1 D1 C1 J Q))
                 (not (and (= Y Q) (= X G1)))
                 a!1
                 (= H1 0)
                 (not (and (= W Y) (= V X)))))
        (a!7 (or (= B1 0)
                 (not (Proc44 G1 F1 E1 D1 C1 J P))
                 (not (and (= Y P) (= X G1)))
                 a!1
                 (= H1 0)
                 (not (and (= W Y) (= V X)))))
        (a!8 (or (= B1 0)
                 (not (Proc44 G1 F1 E1 D1 C1 J O))
                 (not (and (= Y O) (= X G1)))
                 a!1
                 (= H1 0)
                 (not (and (= W Y) (= V X)))))
        (a!9 (or (not (Proc44 G1 F1 E1 D1 C1 J N))
                 (not (and (= Y N) (= X G1)))
                 a!1
                 (= H1 0)
                 (not (and (= W Y) (= V X)))))
        (a!10 (or (= B1 0)
                  (not (Proc44 G1 F1 E1 D1 C1 J M))
                  (not (and (= Y M) (= X G1)))
                  a!1
                  (= H1 0)
                  (not (and (= W Y) (= V X)))))
        (a!11 (or (= B1 0)
                  (not (Proc44 G1 F1 E1 D1 C1 J L))
                  (not (and (= Y L) (= X G1)))
                  a!1
                  (= H1 0)
                  (not (and (= W Y) (= V X)))))
        (a!12 (or (= B1 0)
                  (not (Proc44 G1 F1 E1 D1 C1 J K))
                  (not (and (= Y K) (= X G1)))
                  a!1
                  (= H1 0)
                  (not (and (= W Y) (= V X)))))
        (a!13 (or (not (Proc44 G1 F1 E1 D1 C1 J I))
                  (not (and (= Y I) (= X G1)))
                  a!1
                  (= H1 0)
                  (not (and (= W Y) (= V X)))))
        (a!14 (or (= B1 0)
                  (not (Proc44 G1 F1 E1 D1 C1 J H))
                  (not (and (= Y H) (= X G1)))
                  a!1
                  (= H1 0)
                  (not (and (= W Y) (= V X)))))
        (a!15 (or (= B1 0)
                  (not (Proc50 G1 F1 E1 D1 C1 J H1))
                  (not (Proc24 G1 F1 E1 D1 C1 J A1 H1 G F))
                  (not (and (= Y G) (= X F)))
                  a!1
                  (= H1 0)
                  (not (and (= W Y) (= V X)))))
        (a!16 (or (= B1 0)
                  (not (Proc27 G1 F1 E1 D1 C1 J A1 H1 E))
                  (not (and (= Y E) (= X G1)))
                  a!1
                  (= H1 0)
                  (not (and (= W Y) (= V X)))))
        (a!17 (or (not (Proc44 G1 F1 E1 D1 C1 J D))
                  (not (and (= Y D) (= X G1)))
                  a!1
                  (= H1 0)
                  (not (and (= W Y) (= V X)))))
        (a!19 (or (= B1 0)
                  a!18
                  (not (and (= Y C) (= X G1)))
                  a!1
                  (= H1 0)
                  (not (and (= W Y) (= V X)))))
        (a!20 (or (not (= B 1))
                  (= B 0)
                  (= B1 0)
                  a!18
                  (not (and (= Y C) (= X G1)))
                  a!1
                  (= H1 0)
                  (not (and (= W Y) (= V X))))))
  (let ((a!21 (and (or (= B1 0) (and a!19 a!20))
                   (or (not (= A 1)) (= A 0) (= B1 0) (and a!19 a!20)))))
  (let ((a!22 (or (not J)
                  (= H1 0)
                  (not (Proc47 G1 F1 E1 D1 C1 J H1))
                  (= B1 0)
                  (not (Proc48 G1 F1 E1 D1 C1 J))
                  (and a!2
                       a!3
                       a!4
                       a!5
                       a!6
                       a!7
                       a!8
                       a!9
                       a!10
                       a!11
                       a!12
                       a!13
                       a!14
                       a!15
                       a!16
                       a!17
                       (or (= B1 0) a!21)))))
    (=> (not a!22) (Proc51 G1 F1 E1 D1 C1 J A1 H1 W V))))))))
(assert (forall ((A Int)
         (B Int)
         (C Int)
         (D Int)
         (E Int)
         (F Int)
         (G Int)
         (H Int)
         (J Bool))
  (let ((a!1 (not (or (not J)
                      (not (Proc52 H G F E D J))
                      (not (Proc44 H G F E D J C))
                      (not (Proc53 H G F E D J))))))
    (=> a!1 (Proc54 H G F E D J B A)))))
(assert (forall ((A Int) (B Int) (C Int) (D Int) (E Int) (F Int) (G Int) (J Bool))
  (=> (not (or (not J) (= G 0) (= F 0))) (Proc50 E D C B A J G))))
(assert (forall ((A Int) (B Int) (C Int) (D Int) (E Int) (F Int) (J Bool))
  (=> (not (or (not J) (= F 0))) (Proc47 E D C B A J F))))
(assert (forall ((A Int) (B Int) (C Int) (D Int) (E Int) (J Bool))
  (=> J (Proc16 E D C B A J))))
(assert (forall ((A Int)
         (B Int)
         (C Int)
         (D Int)
         (E Int)
         (F Int)
         (G Int)
         (H Int)
         (I Int)
         (J Bool)
         (K Int)
         (L Int)
         (M Int)
         (N Int)
         (O Int)
         (P Int)
         (Q Int)
         (R Int)
         (S Int)
         (T Int)
         (U Int)
         (V Int)
         (W Int)
         (X Int)
         (Y Int)
         (Z Int)
         (A1 Int)
         (B1 Int)
         (C1 Int)
         (D1 Int))
  (let ((a!1 (or (not (and (= I Z) (= H K))) (not (and (= G H) (= F I)))))
        (a!2 (and (not (<= D (+ 1 E))) (not (<= D K))))
        (a!3 (or (not (= B 1))
                 (not (and (= I B) (= H C)))
                 (not (and (= G H) (= F I)))))
        (a!4 (or (= B 1)
                 (not (and (= I B) (= H C)))
                 (not (and (= G H) (= F I)))))
        (a!6 (or (not (= Y 0))
                 (not (and (= I Z) (= H D1)))
                 (not (and (= G H) (= F I)))))
        (a!7 (or (not (and (= I Z) (= H D1))) (not (and (= G H) (= F I)))))
        (a!8 (or (= X 0)
                 (not (Proc55 D1 C1 B1 A1 Z J))
                 (not (Proc54 D1 C1 B1 A1 Z J A B1))
                 (not (and (= I Z) (= H D1)))
                 (not (and (= G H) (= F I)))))
        (a!9 (or (not (= X 0))
                 (not (and (= I Z) (= H D1)))
                 (not (and (= G H) (= F I))))))
  (let ((a!5 (and a!1
                  (or (not (= E K))
                      (not a!2)
                      (not (Proc12 D C1 B1 A1 Z J E C B))
                      (and a!3 a!4)))))
  (let ((a!10 (and (or (= Y 0)
                       (not (Proc55 D1 C1 B1 A1 Z J))
                       (not (Proc51 D1 C1 B1 A1 Z J M B1 L K))
                       a!5)
                   a!6
                   a!7
                   a!8
                   a!9)))
  (let ((a!11 (not (or (not J)
                       (not (Proc35 D1 C1 B1 A1 Z J Y))
                       (not (Proc42 D1 C1 B1 A1 Z J X))
                       (not (Proc36 D1 C1 B1 A1 Z J W))
                       (not (Proc41 D1 C1 B1 A1 Z J V))
                       (not (Proc34 D1 C1 B1 A1 Z J U))
                       (not (Proc38 D1 C1 B1 A1 Z J T))
                       (not (Proc45 D1 C1 B1 A1 Z J S))
                       (not (Proc43 D1 C1 B1 A1 Z J R))
                       (not (Proc33 D1 C1 B1 A1 Z J Q))
                       (not (Proc39 D1 C1 B1 A1 Z J P))
                       (not (Proc40 D1 C1 B1 A1 Z J O))
                       (not (Proc37 D1 C1 B1 A1 Z J N))
                       a!10))))
    (=> a!11 (Proc31 D1 C1 B1 A1 Z J G F))))))))
(assert (forall ((A Int) (B Int) (C Int) (D Int) (E Int) (J Bool))
  (=> J (Proc48 E D C B A J))))
(assert (forall ((A Int) (B Int) (C Int) (D Int) (E Int) (F Int) (G Int) (J Bool))
  (=> J (Proc49 G F E D C J B A))))
(assert (forall ((A Int) (B Int) (C Int) (D Int) (E Int) (J Bool))
  (=> J (Proc55 E D C B A J))))
(assert (forall ((A Int) (B Int) (C Int) (D Int) (E Int) (J Bool))
  (=> J (Proc52 E D C B A J))))
(assert (forall ((A Int) (B Int) (C Int) (D Int) (E Int) (J Bool))
  (=> J (Proc53 E D C B A J))))
(assert (forall ((A Int)
         (B Int)
         (C Int)
         (D Int)
         (E Int)
         (F Int)
         (G Int)
         (H Int)
         (I Int)
         (J Bool)
         (K Int)
         (L Int)
         (M Int)
         (N Int)
         (O Int)
         (P Int)
         (Q Int)
         (R Int)
         (S Int)
         (T Int)
         (U Int)
         (V Int)
         (W Int)
         (X Int)
         (Y Int)
         (Z Int)
         (A1 Int)
         (B1 Int)
         (C1 Int)
         (D1 Int)
         (E1 Int)
         (F1 Int)
         (G1 Int)
         (H1 Int)
         (I1 Int)
         (J1 Int)
         (K1 Int)
         (O1 Int)
         (P1 Int)
         (Q1 Int)
         (R1 Int)
         (S1 Int)
         (T1 Int)
         (U1 Int)
         (V1 Int)
         (W1 Int)
         (X1 Int)
         (Y1 Int)
         (Z1 Int)
         (A2 Int)
         (B2 Int)
         (C2 Int)
         (D2 Int)
         (E2 Int)
         (F2 Int)
         (G2 Int)
         (H2 Int)
         (I2 Int)
         (J2 Int)
         (K2 Int)
         (L2 Int)
         (M2 Int))
  (let ((a!1 (and (not (<= K2 (+ 4 M2)))
                  (not (<= K2 L2))
                  (= J2 K2)
                  (not (<= I2 (+ 240 J2)))
                  (not (<= I2 K2))
                  (= H2 I2)
                  (not (<= G2 (+ 4 H2)))
                  (not (<= G2 I2))
                  (= F2 G2)
                  (not (<= E2 (+ 332 F2)))
                  (not (<= E2 G2))
                  (= D2 E2)
                  (not (<= C2 (+ 4 D2)))
                  (not (<= C2 E2))
                  (= B2 C2)
                  (not (<= A2 (+ 536 B2)))))
        (a!2 (and (not (<= A2 C2))
                  (= Z1 A2)
                  (not (<= Y1 (+ 240 Z1)))
                  (not (<= Y1 A2))
                  (= X1 Y1)
                  (not (<= W1 (+ 240 X1)))
                  (not (<= W1 Y1))
                  (= V1 W1)
                  (not (<= U1 (+ 536 V1)))
                  (not (<= U1 W1))
                  (= T1 U1)
                  (not (<= S1 (+ 240 T1)))
                  (not (<= S1 U1))
                  (= R1 S1)
                  (not (<= Q1 (+ 4 R1)))
                  (not (<= Q1 S1))
                  (= P1 Q1)
                  (not (<= O1 (+ 536 P1)))
                  (not (<= O1 Q1))
                  (= K1 O1)
                  (not (<= J1 (+ 332 K1)))
                  (not (<= J1 O1))
                  (= I1 J1)
                  (not (<= H1 (+ 240 I1)))
                  (not (<= H1 J1))
                  (= G1 H1)
                  (not (<= F1 (+ 240 G1)))
                  (not (<= F1 H1))
                  (= E1 F1)
                  (not (<= D1 (+ 332 E1)))
                  (not (<= D1 F1))
                  (= C1 D1)
                  (not (<= B1 (+ 4 C1)))
                  (not (<= B1 D1))
                  (= A1 B1)
                  (not (<= Z (+ 536 A1)))
                  (not (<= Z B1))
                  (= Y Z)
                  (not (<= X (+ 240 Y)))
                  (not (<= X Z))
                  (= W X)
                  (not (<= V (+ 240 W)))
                  (not (<= V X))
                  (= U V)
                  (not (<= T (+ 240 U)))
                  (not (<= T V))
                  (= S T)
                  (not (<= R (+ 240 S)))
                  (not (<= R T))
                  (= Q R)
                  (not (<= P (+ 240 Q)))
                  (not (<= P R))
                  (= O P)
                  (not (<= N (+ 40 O)))
                  (not (<= N P))
                  (= M N)
                  (not (<= L (+ 332 M)))
                  (not (<= L N))
                  (= K L)
                  (not (<= I (+ 4 K)))
                  (not (<= I L))
                  (= H I)
                  (not (<= G (+ 40 H)))
                  (not (<= G I)))))
  (let ((a!3 (or (not J)
                 (not (= M2 L2))
                 (not a!1)
                 (not a!2)
                 (not (and (= F G) (= E Q))))))
    (=> (not a!3) (Proc30 L2 D C B A J F E))))))
(assert (forall ((A Int)
         (B Int)
         (C Int)
         (D Int)
         (E Int)
         (F Int)
         (G Int)
         (H Int)
         (I Int)
         (J Bool)
         (K Int)
         (L Int)
         (M Int)
         (N Int)
         (O Int)
         (P Int)
         (Q Int)
         (R Int)
         (L1 Bool)
         (M1 Bool))
  (let ((a!1 (or (not M1)
                 (not (and (Proc32 R Q P O N true M L K I L1 H G) (not L1))))))
    (=> (not a!1) (Proc56 R Q P O N M1 F J E D C B A)))))
(assert (let ((a!1 (exists ((V0 Int)
                    (V1 Int)
                    (V2 Int)
                    (V3 Int)
                    (V4 Int)
                    (V5 Bool)
                    (V6 Int)
                    (V7 Bool)
                    (V8 Int)
                    (V9 Int)
                    (V10 Int)
                    (V11 Int)
                    (V12 Int))
             (not (=> (and (Proc56 V0 V1 V2 V3 V4 V5 V6 V7 V8 V9 V10 V11 V12)
                           (not false))
                      false)))))
  (not a!1)))

(check-sat)
